MARKOV
14
3 3 3 9 2 2 3 9 3 18 2 9 6 3 
25
1 0
1 1
1 2
1 3
1 4
1 5
1 6
1 7
1 8
1 9
1 10
1 11
1 12
1 13
2 3 5
2 4 5
2 3 6
2 7 8
2 0 9
2 6 9
2 0 12
2 9 12
2 11 12
2 9 13
2 12 13

3
0.001204 0.005344 1.000000 
3
0.118130 0.000001 0.053698 
3
1.000000 0.000014 0.040877 
9
0.000001 0.000001 0.000000 0.434644 0.000864 0.000001 0.000000 0.000001 0.000000 
2
0.000709 1.000000 
2
0.055360 1.000000 
3
0.000001 0.000001 1.000000 
9
0.000001 0.000001 0.000001 0.277161 0.000097 0.000001 0.000046 1.000000 0.000001 
3
1.000000 0.000001 0.025790 
18
0.000001 0.000001 0.000001 0.000001 0.000001 0.000001 0.000001 0.000001 0.000001 0.000001 0.000001 0.000001 0.000001 1.000000 0.039860 0.000002 0.047210 0.000025 
2
0.050345 0.304476 
9
0.000001 0.000238 0.000363 0.002279 0.000022 0.000002 0.000101 1.000000 0.073582 
6
0.000001 0.000001 1.000000 0.000033 0.016330 0.001392 
3
0.000484 0.000290 1.000000 
18
1.000000 1.000000 1.000000 1.000000 1.000000 1.000000 1.000000 1.000000 0.000001 0.000388 0.000001 0.000099 1.000000 1.000000 1.000000 1.000000 1.000000 1.000000 
4
0.003476 0.001314 1.000000 1.000000 
27
0.000001 1.000000 0.000001 0.000001 1.000000 0.000001 0.000001 1.000000 0.000035 1.000000 1.000000 0.151056 1.000000 1.000000 1.000000 1.000000 1.000000 1.000000 1.000000 1.000000 1.000000 1.000000 1.000000 1.000000 1.000000 1.000000 1.000000 
27
1.000000 1.000000 0.012523 1.000000 1.000000 1.000000 1.000000 1.000000 0.000045 1.000000 1.000000 1.000000 1.000000 1.000000 1.000000 1.000000 1.000000 1.000000 1.000000 1.000000 1.000000 1.000000 1.000000 1.000000 1.000000 1.000000 1.000000 
54
1.000000 1.000000 1.000000 1.000000 1.000000 1.000000 1.000000 1.000000 1.000000 1.000000 1.000000 1.000000 1.000000 1.000000 1.000000 1.000000 1.000000 1.000000 0.000001 0.000001 0.000001 0.000001 0.000001 0.000001 1.000000 1.000000 1.000000 1.000000 1.000000 1.000000 1.000000 1.000000 1.000000 1.000000 1.000000 1.000000 1.000000 1.000000 1.000000 1.000000 1.000000 1.000000 1.000000 1.000000 1.000000 1.000000 1.000000 1.000000 1.000000 1.000000 1.000000 1.000000 1.000000 1.000000 
54
1.000000 1.000000 1.000000 1.000000 1.000000 1.000000 1.000000 1.000000 1.000000 1.000000 1.000000 1.000000 1.000000 1.000000 1.000000 1.000000 1.000000 1.000000 0.001101 1.000000 1.000000 0.001189 1.000000 1.000000 1.000000 1.000000 1.000000 1.000000 1.000000 1.000000 1.000000 1.000000 1.000000 1.000000 1.000000 1.000000 1.000000 1.000000 1.000000 1.000000 1.000000 1.000000 1.000000 1.000000 1.000000 1.000000 1.000000 1.000000 1.000000 1.000000 1.000000 1.000000 1.000000 1.000000 
18
0.043824 1.000000 0.815263 1.000000 1.000000 1.000000 0.000001 0.000001 1.000000 1.000000 1.000000 1.000000 1.000000 1.000000 1.000000 1.000000 1.000000 1.000000 
108
0.000001 0.000001 1.000000 1.000000 1.000000 1.000000 0.000001 0.000001 1.000000 1.000000 1.000000 1.000000 0.000001 0.000001 1.000000 1.000000 1.000000 1.000000 0.000001 0.000001 1.000000 1.000000 1.000000 1.000000 0.000001 0.000001 1.000000 1.000000 1.000000 1.000000 0.000001 0.000001 1.000000 1.000000 1.000000 1.000000 0.000001 0.000001 0.000001 0.000001 0.000001 0.000001 0.000001 0.000001 0.000240 0.000036 0.000001 0.000001 0.000001 0.000001 1.000000 0.000029 0.000001 0.000001 0.000001 0.000001 0.000001 0.000001 0.000001 0.000001 0.000001 0.000001 0.000001 0.000001 0.000001 0.000001 0.000001 0.000001 0.012596 0.023850 0.000001 0.000001 0.000047 0.000001 1.000000 1.000000 1.000000 0.998214 0.000330 0.000001 1.000000 1.000000 1.000000 1.000000 0.000185 0.000001 1.000000 1.000000 1.000000 1.000000 0.000033 0.000001 1.000000 1.000000 1.000000 1.000000 0.000338 0.000001 1.000000 1.000000 1.000000 1.000000 0.000292 0.000001 1.000000 1.000000 1.000000 1.000000 
54
1.000000 1.000000 1.000000 1.000000 1.000000 0.000067 1.000000 1.000000 1.000000 1.000000 1.000000 1.000000 1.000000 1.000000 1.000000 1.000000 1.000000 1.000000 1.000000 1.000000 1.000000 1.000000 1.000000 1.000000 1.000000 1.000000 1.000000 1.000000 1.000000 1.000000 1.000000 1.000000 1.000000 1.000000 1.000000 1.000000 1.000000 1.000000 1.000000 1.000000 1.000000 1.000000 1.000000 1.000000 1.000000 1.000000 1.000000 1.000000 1.000000 1.000000 1.000000 1.000000 1.000000 1.000000 
54
1.000000 1.000000 0.000045 1.000000 1.000000 0.001168 1.000000 1.000000 1.000000 1.000000 1.000000 0.000045 1.000000 1.000000 0.000045 1.000000 1.000000 0.716785 1.000000 1.000000 1.000000 1.000000 1.000000 1.000000 1.000000 1.000000 1.000000 1.000000 1.000000 1.000000 1.000000 1.000000 1.000000 1.000000 1.000000 1.000000 1.000000 1.000000 1.000000 1.000000 1.000000 1.000000 1.000000 1.000000 1.000000 1.000000 1.000000 1.000000 1.000000 1.000000 1.000000 1.000000 1.000000 1.000000 
18
1.000000 1.000000 0.000001 0.005962 1.000000 0.000001 1.000000 1.000000 1.000000 1.000000 1.000000 1.000000 1.000000 1.000000 1.000000 1.000000 1.000000 1.000000 
